1000
[150,151,152,153,154,155,156,158,159,160,161,162,163,164,166,167,168,169,170,171,172,173,174,175,176,178,179,180,181,182,183,184,185,186,188,189,191,192,193,194,195,196,197,198,199,200]
[3,3,1,3,5,2,2,5,1,1,2,2,3,1,1,2,4,3,5,3,3,3,5,2,2,2,1,3,3,3,1,2,2,1,2,2,3,1,3,8,3,3,3,1,2,4]
